
******************************************************************************
This program contains Ipopt, a library for large-scale nonlinear optimization.
 Ipopt is released as open source code under the Eclipse Public License (EPL).
         For more information visit http://projects.coin-or.org/Ipopt

This version of Ipopt was compiled from source code available at
    https://github.com/IDAES/Ipopt as part of the Institute for the Design of
    Advanced Energy Systems Process Systems Engineering Framework (IDAES PSE
    Framework) Copyright (c) 2018-2019. See https://github.com/IDAES/idaes-pse.

This version of Ipopt was compiled using HSL, a collection of Fortran codes
    for large-scale scientific computation.  All technical papers, sales and
    publicity material resulting from use of the HSL codes within IPOPT must
    contain the following acknowledgement:
        HSL, a collection of Fortran codes for large-scale scientific
        computation. See http://www.hsl.rl.ac.uk.
******************************************************************************

This is Ipopt version 3.13.2, running with linear solver ma27.

Number of nonzeros in equality constraint Jacobian...:     1172
Number of nonzeros in inequality constraint Jacobian.:        0
Number of nonzeros in Lagrangian Hessian.............:     1333

Total number of variables............................:      465
                     variables with only lower bounds:      124
                variables with lower and upper bounds:      279
                     variables with only upper bounds:        0
Total number of equality constraints.................:      462
Total number of inequality constraints...............:        0
        inequality constraints with only lower bounds:        0
   inequality constraints with lower and upper bounds:        0
        inequality constraints with only upper bounds:        0

iter    objective    inf_pr   inf_du lg(mu)  ||d||  lg(rg) alpha_du alpha_pr  ls
   0  0.0000000e+00 1.52e+00 6.33e-15  -1.0 0.00e+00    -  0.00e+00 0.00e+00   0
   1  1.2959470e-01 1.46e+00 1.25e+05  -1.0 6.43e+06    -  1.66e-02 6.95e-03f  7
   2  6.4330808e+00 9.20e-01 2.41e+07  -1.0 5.91e+06    -  1.43e-02 3.84e-02h  4
   3  7.4177248e+00 9.73e-01 2.39e+07  -1.0 6.92e+06    -  1.56e-02 8.38e-03h  5
   4  1.1983733e+01 1.16e+00 2.37e+07  -1.0 7.07e+06    -  1.07e-02 1.23e-02h  4
   5  2.0383608e+01 1.40e+00 2.35e+07  -1.0 2.35e+07    -  1.18e-02 9.17e-03h  3
   6  2.6438292e+01 1.44e+00 2.34e+07  -1.0 3.81e+07    -  2.19e-02 3.55e-03h  4
   7  3.0741222e+01 1.44e+00 2.33e+07  -1.0 4.10e+07    -  2.14e-02 1.87e-03h  5
   8  3.5965240e+01 1.45e+00 2.33e+07  -1.0 4.40e+07    -  2.19e-02 1.85e-03h  5
   9  4.2146574e+01 1.45e+00 2.32e+07  -1.0 4.72e+07    -  2.21e-02 1.81e-03h  5
iter    objective    inf_pr   inf_du lg(mu)  ||d||  lg(rg) alpha_du alpha_pr  ls
  10  4.9302715e+01 1.45e+00 2.32e+07  -1.0 5.05e+07    -  2.57e-02 1.76e-03h  5
  11  2.7941369e+02 1.85e+00 2.25e+07  -1.0 5.43e+07    -  2.64e-02 2.68e-02w  1
  12  2.9046251e+02 1.84e+00 2.25e+07  -1.0 6.49e+07    -  7.45e-02 8.13e-04w  1
  13  5.4928231e+02 1.90e+00 2.21e+07  -1.0 7.02e+07    -  6.97e-02 1.52e-02w  1
  14  6.6294283e+01 1.46e+00 2.31e+07  -1.0 1.12e+08    -  2.64e-02 3.36e-03h  3
  15  8.7384691e+01 1.47e+00 2.31e+07  -1.0 5.88e+07    -  3.65e-02 3.25e-03h  4
  16  1.1183841e+02 1.47e+00 2.30e+07  -1.0 6.47e+07    -  3.78e-02 2.97e-03h  4
  17  1.6907488e+02 1.49e+00 2.29e+07  -1.0 7.07e+07    -  4.06e-02 5.33e-03h  3
  18  2.3467410e+02 1.49e+00 2.27e+07  -1.0 7.79e+07    -  6.68e-02 4.57e-03h  3
  19  3.1688856e+02 1.50e+00 2.26e+07  -1.0 8.37e+07    -  6.81e-02 4.51e-03h  3
iter    objective    inf_pr   inf_du lg(mu)  ||d||  lg(rg) alpha_du alpha_pr  ls
  20  4.0388462e+02 1.50e+00 2.25e+07  -1.0 9.17e+07    -  4.00e-02 3.82e-03h  4
  21  5.6393841e+02 1.51e+00 2.24e+07  -1.0 1.07e+08    -  5.32e-02 5.30e-03h  4
  22  6.9668478e+02 1.51e+00 2.23e+07  -1.0 1.38e+08    -  3.94e-02 3.07e-03h  5
  23  8.0089353e+02 1.51e+00 2.23e+07  -1.0 1.65e+08    -  6.29e-02 1.87e-03h  6
  24  1.8990428e+04 3.82e+00 2.11e+09  -1.0 1.95e+08    -  3.03e-02 8.89e-02w  1
  25  1.4666678e+03 5.68e+00 3.53e+09  -1.0 8.17e+09    -  3.51e-03 1.87e-03w  1
  26  1.4715378e+03 5.66e+00 3.52e+09  -1.0 5.38e+06  -4.0 5.10e-03 2.88e-03w  1
  27  8.0386489e+02 1.51e+00 2.23e+07  -1.0 2.43e+07  -4.5 3.03e-02 4.34e-05h 11
  28r 8.0386489e+02 1.51e+00 1.00e+03   0.2 0.00e+00    -  0.00e+00 3.42e-07R 19
  29r 8.0386496e+02 1.44e+00 9.96e+02   0.2 1.24e+03    -  4.89e-03 2.67e-03f  1
iter    objective    inf_pr   inf_du lg(mu)  ||d||  lg(rg) alpha_du alpha_pr  ls
  30r 8.0386408e+02 1.33e+00 9.89e+02   0.2 8.79e+02    -  5.12e-02 6.71e-03f  1
  31  9.2524633e+02 1.33e+00 2.87e+05  -1.0 1.03e+08    -  3.86e-02 3.72e-03h  3
  32  1.1996226e+03 1.34e+00 7.63e+05  -1.0 1.37e+08    -  3.20e-02 5.55e-03h  3
  33  1.6632998e+03 1.34e+00 2.05e+06  -1.0 1.54e+08    -  3.31e-02 6.81e-03h  1
  34  1.6793589e+03 1.34e+00 2.05e+06  -1.0 2.23e+08    -  2.75e-02 1.60e-04h  1
  35  1.9300956e+03 1.34e+00 2.07e+06  -1.0 2.54e+08    -  2.54e-02 2.17e-03h  4
  36  2.1973238e+03 1.34e+00 2.08e+06  -1.0 3.01e+08    -  1.02e-01 1.82e-03h  5
  37  2.6128905e+03 1.34e+00 2.10e+06  -1.0 3.71e+08    -  2.57e-02 2.11e-03h  5
  38  3.1399667e+03 1.34e+00 2.11e+06  -1.0 4.70e+08    -  1.08e-01 1.94e-03h  5
  39  3.6001042e+03 1.35e+00 2.12e+06  -1.0 6.64e+08    -  1.54e-02 1.11e-03h  6
iter    objective    inf_pr   inf_du lg(mu)  ||d||  lg(rg) alpha_du alpha_pr  ls
  40  4.1461357e+03 1.35e+00 2.29e+06  -1.0 8.12e+08    -  9.60e-02 1.01e-03h  6
  41  4.7417208e+03 1.35e+00 3.35e+06  -1.0 1.17e+09    -  9.94e-03 7.07e-04h  7
  42  5.1727549e+03 1.35e+00 4.50e+06  -1.0 1.31e+09    -  5.81e-02 4.41e-04h  7
  43  5.6176612e+03 1.35e+00 6.61e+06  -1.0 1.74e+09    -  7.87e-03 3.26e-04h  7
  44  5.9957872e+03 1.35e+00 1.23e+07  -1.0 1.24e+09    -  4.79e-02 3.84e-04h  6
  45  1.6701846e+04 3.63e+00 1.31e+10  -1.0 9.14e+08    -  2.01e-02 1.04e-02w  1
  46  2.4367983e+03 4.05e+00 5.14e+09  -1.0 6.62e+08    -  5.20e-02 2.17e-02w  1
  47  7.2488685e+02 6.42e+00 5.36e+09  -1.0 4.04e+08    -  2.69e-02 1.11e-02w  1
  48  6.2314367e+03 1.35e+00 2.61e+07  -1.0 7.51e+07  -2.2 2.01e-02 3.24e-04h  5
  49  6.1687559e+03 1.35e+00 1.60e+08  -1.0 2.64e+08    -  1.32e-01 3.30e-04f  6
iter    objective    inf_pr   inf_du lg(mu)  ||d||  lg(rg) alpha_du alpha_pr  ls
  50  6.4683016e+03 1.35e+00 2.26e+08  -1.0 1.19e+09    -  1.21e-02 3.03e-04h  6
  51  6.3406653e+03 1.35e+00 7.78e+08  -1.0 6.79e+08    -  8.13e-02 1.98e-04f  7
  52  6.3553903e+03 1.35e+00 1.97e+09  -1.0 2.02e+08    -  1.05e-01 1.57e-04h  7
  53  6.3659085e+03 1.35e+00 3.28e+09  -1.0 1.92e+08    -  8.80e-02 1.48e-04h  7
  54  6.3483358e+03 1.35e+00 4.59e+09  -1.0 1.94e+08    -  9.18e-02 3.42e-04f  6
  55  6.2824096e+03 1.35e+00 5.49e+09  -1.0 1.79e+08    -  7.37e-02 3.46e-04f  6
  56  6.2099566e+03 1.35e+00 7.60e+09  -1.0 2.07e+08    -  1.88e-01 3.42e-04f  6
  57  6.1364106e+03 1.35e+00 8.87e+09  -1.0 2.12e+08    -  1.24e-01 3.45e-04f  6
  58  4.9854379e+03 3.80e+00 4.83e+11  -1.0 1.78e+08    -  2.42e-01 1.28e-02w  1
  59  3.7623970e+03 4.67e+00 3.24e+11  -1.0 1.19e+08    -  5.73e-03 1.52e-02w  1
iter    objective    inf_pr   inf_du lg(mu)  ||d||  lg(rg) alpha_du alpha_pr  ls
  60  3.4838061e+03 1.53e+01 1.76e+11  -1.0 9.82e+07    -  8.86e-03 8.81e-03w  1
  61  6.0896335e+03 1.35e+00 1.13e+10  -1.0 1.56e+08    -  2.42e-01 4.01e-04f  5
  62  4.9443190e+03 3.80e+00 4.57e+11  -1.0 1.76e+08    -  1.42e-01 1.26e-02f  1
  63  3.8155322e+03 4.66e+00 3.07e+11  -1.0 1.13e+08    -  1.07e-01 1.47e-02f  1
  64  3.2070843e+03 1.02e+01 1.79e+11  -1.0 1.19e+08    -  1.28e-02 1.41e-02f  1
  65  2.7286600e+03 1.01e+01 1.09e+11  -1.0 6.85e+07    -  2.35e-02 1.27e-02f  1
  66  2.6981224e+03 1.01e+01 1.09e+11  -1.0 1.33e+08    -  2.66e-03 4.09e-04f  1
  67  2.6974742e+03 1.01e+01 1.09e+11  -1.0 1.54e+08    -  2.65e-03 7.52e-06f  1
  68  2.6921352e+03 1.01e+01 5.97e+25  -1.0 1.14e+11    -  3.39e-06 8.41e-08f  1
Scaling factors are invalid - setting them all to 1.
Scaling factors are invalid - setting them all to 1.
Scaling factors are invalid - setting them all to 1.
Scaling factors are invalid - setting them all to 1.
Scaling factors are invalid - setting them all to 1.
Scaling factors are invalid - setting them all to 1.
Scaling factors are invalid - setting them all to 1.
Scaling factors are invalid - setting them all to 1.
Scaling factors are invalid - setting them all to 1.
Scaling factors are invalid - setting them all to 1.
WARNING: Problem in step computation; switching to emergency mode.
  69r 2.6921352e+03 1.01e+01 1.00e+03   1.0 0.00e+00  19.4 0.00e+00 0.00e+00R  1
iter    objective    inf_pr   inf_du lg(mu)  ||d||  lg(rg) alpha_du alpha_pr  ls
  70r 2.6921314e+03 1.04e+01 1.92e+09   1.0 6.08e+03    -  2.89e-03 1.57e-03f  1
  71r 2.6921314e+03 4.47e+00 1.67e+05   1.0 1.88e+00   7.5 1.11e-02 2.64e-03H  1
  72r 2.6921314e+03 4.47e+00 9.99e+02   0.7 0.00e+00    -  0.00e+00 8.28e-10R  2
  73r 2.6921303e+03 1.54e+01 3.49e+10   0.7 5.32e+03    -  9.33e-03 2.54e-03f  1
  74r 2.6921303e+03 9.23e+00 1.18e+06   0.7 1.96e+00   8.4 3.24e-03 3.23e-03h  1
  75r 2.6921303e+03 9.23e+00 1.18e+06   0.7 3.82e+00   7.9 0.00e+00 2.72e-07R  7
  76r 2.6921303e+03 1.00e+01 2.60e+13   0.7 3.69e-05   7.5 9.90e-01 1.00e+00f  1
WARNING: Problem in step computation; switching to emergency mode.
  77r 2.6921303e+03 1.00e+01 2.60e+13   0.7 3.69e-05  19.4 0.00e+00 0.00e+00R  1
  78r 2.6921303e+03 1.00e+01 8.24e+04   0.7 1.81e-17  19.8 9.90e-01 1.00e+00   0
  79r 2.6921303e+03 1.00e+01 2.45e+03   0.7 1.22e-16  19.3 9.90e-01 1.00e+00   0
iter    objective    inf_pr   inf_du lg(mu)  ||d||  lg(rg) alpha_du alpha_pr  ls
  80r 2.6921303e+03 1.00e+01 4.63e+03   0.7 6.90e-16  18.8 9.95e-01 1.00e+00   0
Restoration phase is called at point that is almost feasible,
  with constraint violation 1.336511e-12. Abort.
Restoration phase in the restoration phase failed.

Number of Iterations....: 80

                                   (scaled)                 (unscaled)
Objective...............:   2.6921302635522584e+03    2.6921302635522584e+03
Dual infeasibility......:   2.3010737795056807e+03    2.3010737795056807e+03
Constraint violation....:   1.0028444812066658e+01    1.0028444812066658e+01
Complementarity.........:   9.8745941462999181e+00    9.8745941462999181e+00
Overall NLP error.......:   1.7520791803783568e+03    2.3010737795056807e+03


Number of objective function evaluations             = 397
Number of objective gradient evaluations             = 71
Number of equality constraint evaluations            = 398
Number of inequality constraint evaluations          = 0
Number of equality constraint Jacobian evaluations   = 86
Number of inequality constraint Jacobian evaluations = 0
Number of Lagrangian Hessian evaluations             = 81
Total CPU secs in IPOPT (w/o function evaluations)   =      0.284
Total CPU secs in NLP function evaluations           =      4.558

EXIT: Restoration Failed!
